c FILE /home/rafael/Documents/HappySet/MIHS/inputs/happygen/output/graph_scale_free_k10_p0.2_v100_20241127_083910.txt
c SOURCE This is a scale-free graph formed for the happy graph colouring problem.
c DESCRIPTION It was generated using the problem generator of Rhyd Lewis
c
c GRAPH STATS
c Seed                             = 901285824
c Number of Nodes                  = 100
c Number of colours k              = 10
c Number of pre-assignments        = 20
c Number of links per new node     = 5
c Density                          = 0.0979798
c 
c The degrees of nodes 1 to 100, respectively, are as follows 
c [32, 31, 30, 29, 28, 24, 22, 22, 20, 19, 18, 18, 18, 18, 18, 17, 17, 17, 15, 13, 13, 12, 12, 12, 12, 11, 
c  11, 11, 9, 9, 9, 9, 8, 8, 8, 8, 8, 8, 8, 8, 8, 8, 7, 7, 7, 7, 7, 7, 7, 7, 7, 
c  7, 7, 6, 6, 6, 6, 6, 6, 6, 6, 6, 6, 6, 6, 6, 6, 6, 6, 6, 6, 6, 6, 6, 6, 5, 
c  5, 5, 5, 5, 5, 5, 5, 5, 5, 5, 5, 5, 5, 5, 5, 5, 5, 5, 5, 5, 5, 5, 5, 5] 
c  
p edge 100 485 10
e 1 2
e 1 3
e 1 4
e 1 5
e 1 6
e 1 7
e 1 8
e 1 11
e 1 12
e 1 13
e 1 14
e 1 15
e 1 18
e 1 19
e 1 23
e 1 26
e 1 33
e 1 35
e 1 36
e 1 41
e 1 42
e 1 54
e 1 56
e 1 57
e 1 67
e 1 71
e 1 76
e 1 77
e 1 78
e 1 79
e 1 86
e 1 87
e 2 3
e 2 4
e 2 6
e 2 7
e 2 8
e 2 9
e 2 10
e 2 11
e 2 12
e 2 13
e 2 14
e 2 16
e 2 18
e 2 20
e 2 22
e 2 28
e 2 32
e 2 33
e 2 34
e 2 35
e 2 38
e 2 39
e 2 40
e 2 43
e 2 44
e 2 49
e 2 50
e 2 54
e 2 57
e 2 60
e 3 4
e 3 5
e 3 6
e 3 10
e 3 11
e 3 12
e 3 13
e 3 14
e 3 16
e 3 19
e 3 20
e 3 22
e 3 24
e 3 29
e 3 30
e 3 34
e 3 37
e 3 38
e 3 41
e 3 42
e 3 55
e 3 56
e 3 63
e 3 70
e 3 75
e 3 80
e 3 81
e 3 100
e 4 6
e 4 7
e 4 8
e 4 9
e 4 11
e 4 12
e 4 16
e 4 17
e 4 19
e 4 20
e 4 22
e 4 24
e 4 26
e 4 33
e 4 35
e 4 37
e 4 43
e 4 47
e 4 59
e 4 61
e 4 64
e 4 67
e 4 74
e 4 89
e 4 90
e 4 92
e 5 7
e 5 11
e 5 13
e 5 15
e 5 16
e 5 17
e 5 18
e 5 21
e 5 34
e 5 39
e 5 45
e 5 46
e 5 47
e 5 53
e 5 54
e 5 56
e 5 65
e 5 69
e 5 76
e 5 80
e 5 81
e 5 88
e 5 92
e 5 95
e 5 96
e 5 100
e 6 7
e 6 9
e 6 10
e 6 12
e 6 18
e 6 23
e 6 24
e 6 27
e 6 35
e 6 43
e 6 55
e 6 57
e 6 63
e 6 74
e 6 75
e 6 76
e 6 84
e 6 89
e 6 90
e 6 97
e 7 16
e 7 21
e 7 25
e 7 27
e 7 31
e 7 38
e 7 41
e 7 43
e 7 45
e 7 48
e 7 50
e 7 52
e 7 69
e 7 72
e 7 76
e 7 81
e 7 94
e 8 12
e 8 14
e 8 15
e 8 16
e 8 22
e 8 27
e 8 29
e 8 31
e 8 34
e 8 36
e 8 46
e 8 49
e 8 53
e 8 54
e 8 57
e 8 63
e 8 70
e 8 93
e 8 96
e 9 13
e 9 20
e 9 23
e 9 26
e 9 27
e 9 28
e 9 31
e 9 33
e 9 45
e 9 46
e 9 58
e 9 60
e 9 62
e 9 67
e 9 79
e 9 91
e 9 99
e 10 12
e 10 16
e 10 17
e 10 24
e 10 25
e 10 29
e 10 36
e 10 45
e 10 53
e 10 58
e 10 69
e 10 70
e 10 83
e 10 86
e 10 89
e 10 98
e 11 12
e 11 13
e 11 16
e 11 18
e 11 20
e 11 32
e 11 51
e 11 53
e 11 55
e 11 60
e 11 62
e 11 71
e 11 96
e 12 16
e 12 23
e 12 26
e 12 40
e 12 43
e 12 44
e 12 49
e 12 50
e 12 82
e 12 85
e 13 14
e 13 15
e 13 17
e 13 20
e 13 22
e 13 30
e 13 38
e 13 41
e 13 68
e 13 75
e 13 92
e 13 100
e 14 23
e 14 25
e 14 36
e 14 39
e 14 40
e 14 47
e 14 48
e 14 50
e 14 62
e 14 84
e 14 88
e 14 90
e 14 99
e 15 28
e 15 34
e 15 39
e 15 51
e 15 57
e 15 60
e 15 62
e 15 80
e 15 84
e 15 86
e 15 91
e 15 92
e 15 97
e 15 99
e 16 24
e 16 25
e 16 28
e 16 44
e 16 46
e 16 73
e 16 74
e 16 83
e 17 19
e 17 22
e 17 39
e 17 44
e 17 48
e 17 61
e 17 65
e 17 66
e 17 71
e 17 73
e 17 85
e 17 92
e 17 95
e 18 21
e 18 29
e 18 36
e 18 40
e 18 45
e 18 48
e 18 53
e 18 55
e 18 56
e 18 62
e 18 65
e 18 72
e 19 23
e 19 30
e 19 41
e 19 52
e 19 60
e 19 65
e 19 68
e 19 70
e 19 71
e 19 84
e 19 99
e 20 26
e 20 27
e 20 31
e 20 50
e 20 55
e 20 72
e 20 78
e 21 24
e 21 29
e 21 30
e 21 47
e 21 58
e 21 64
e 21 85
e 21 87
e 21 90
e 21 98
e 22 33
e 22 37
e 22 44
e 22 64
e 22 78
e 22 85
e 23 35
e 23 49
e 23 51
e 23 52
e 23 59
e 23 79
e 24 37
e 24 56
e 24 61
e 24 69
e 24 73
e 24 75
e 25 28
e 25 32
e 25 51
e 25 63
e 25 66
e 25 67
e 25 78
e 25 81
e 26 34
e 26 38
e 26 47
e 26 59
e 26 91
e 26 95
e 27 46
e 27 58
e 27 71
e 27 74
e 27 82
e 27 94
e 28 35
e 28 52
e 28 58
e 28 65
e 28 77
e 28 78
e 29 36
e 29 69
e 29 76
e 29 77
e 30 39
e 30 68
e 30 70
e 30 97
e 30 100
e 31 46
e 31 68
e 31 80
e 31 83
e 31 93
e 32 41
e 32 42
e 32 52
e 32 58
e 32 64
e 32 67
e 33 37
e 33 68
e 33 77
e 34 66
e 34 87
e 35 96
e 35 100
e 36 54
e 36 59
e 37 64
e 37 77
e 37 80
e 38 51
e 38 59
e 38 98
e 39 40
e 39 95
e 40 61
e 40 86
e 40 88
e 41 82
e 41 97
e 42 51
e 42 66
e 42 89
e 42 90
e 42 93
e 43 63
e 43 88
e 44 61
e 44 86
e 45 48
e 45 79
e 46 83
e 47 66
e 47 81
e 48 49
e 48 87
e 49 82
e 49 93
e 50 85
e 50 94
e 51 73
e 52 82
e 52 84
e 53 95
e 53 98
e 54 91
e 55 66
e 56 74
e 57 91
e 59 88
e 60 87
e 61 96
e 62 79
e 63 83
e 64 89
e 65 73
e 67 72
e 68 99
e 69 94
e 70 72
e 71 93
e 72 94
e 73 75
e 74 97
e 75 98
n 7 3
n 20 3
n 21 3
n 28 9
n 39 6
n 42 4
n 44 7
n 54 2
n 56 10
n 60 8
n 61 7
n 62 1
n 65 9
n 68 8
n 72 3
n 80 7
n 81 3
n 83 5
n 88 8
n 97 2
